route
7
60
47
38
57
44
15
67
76
77
35
31
18
71
52
66
4
50
59
19
63
6
69
41
20
40
51
16
62
73
58
23
48
68
13
25
53
22
0
26
37
30
1
5
43
21
46
49
65
72
55
28
70
12
74
9
3
61
64
75
56
17
8
24
34
29
11
14
2
32
45
33
10
27
54
42
36
78
39
